/*********************************************
 * OPL 12.7.0.0 Data
 * Author: Deme
 * Creation Date: 22/5/2017 at 16:17:00
 *********************************************/

nCities=20;
nLocations=30;
nTypes=10;
d_center=3;
p=[4 4 6 8 6 3 8 4 8 5 8 3 5 7 7 3 6 6 8 6];
cap=[37 23 26 49 23 45 34 38 37 42];
d_city=[8 3 9 9 10 9 5 8 3 3];
cost=[11 34 26 45 15 50 23 26 39 7];
posCities=[[2 2] [4 0] [5 3] [3 0] [0 2] [1 0] [3 0] [0 1] [0 5] [0 0] [1 5] [2 4] [2 0] [5 1] [2 2] [3 0] [2 2] [0 3] [1 4] [0 0]];
posLocations=[
	[2 5]	[2 4]	[2 4]	[3 2]	[2 1]	[0 0]	[1 4]	[4 3]	[1 5]	[0 3]	[0 5]	[3 4]	[0 1]	[2 2]	[2 5]	[5 4]	[2 5]	[4 3]	[2 1]	[3 5]	[0 4]	[0 4]	[1 3]	[1 4]	[5 5]	[0 4]	[4 2]	[1 0]	[3 1]	[5 5]];